Input/IP/Random/Random_030_05_3.lp
min: z;
+y0 +y1 +y2 +y3 +y4 +y5 +y6 +y7 +y8 +y9 +y10 +y11 +y12 +y13 +y14 +y15 +y16 +y17 +y18 +y19 +y20 +y21 +y22 +y23 +y24 +y25 +y26 +y27 +y28 +y29 = 3;
+x0.0 +x0.1 +x0.2 +x0.3 +x0.4 +x0.5 +x0.6 +x0.7 +x0.8 +x0.9 +x0.10 +x0.11 +x0.12 +x0.13 +x0.14 +x0.15 +x0.16 +x0.17 +x0.18 +x0.19 +x0.20 +x0.21 +x0.22 +x0.23 +x0.24 +x0.25 +x0.26 +x0.27 +x0.28 +x0.29 = 1;
+x1.0 +x1.1 +x1.2 +x1.3 +x1.4 +x1.5 +x1.6 +x1.7 +x1.8 +x1.9 +x1.10 +x1.11 +x1.12 +x1.13 +x1.14 +x1.15 +x1.16 +x1.17 +x1.18 +x1.19 +x1.20 +x1.21 +x1.22 +x1.23 +x1.24 +x1.25 +x1.26 +x1.27 +x1.28 +x1.29 = 1;
+x2.0 +x2.1 +x2.2 +x2.3 +x2.4 +x2.5 +x2.6 +x2.7 +x2.8 +x2.9 +x2.10 +x2.11 +x2.12 +x2.13 +x2.14 +x2.15 +x2.16 +x2.17 +x2.18 +x2.19 +x2.20 +x2.21 +x2.22 +x2.23 +x2.24 +x2.25 +x2.26 +x2.27 +x2.28 +x2.29 = 1;
+x3.0 +x3.1 +x3.2 +x3.3 +x3.4 +x3.5 +x3.6 +x3.7 +x3.8 +x3.9 +x3.10 +x3.11 +x3.12 +x3.13 +x3.14 +x3.15 +x3.16 +x3.17 +x3.18 +x3.19 +x3.20 +x3.21 +x3.22 +x3.23 +x3.24 +x3.25 +x3.26 +x3.27 +x3.28 +x3.29 = 1;
+x4.0 +x4.1 +x4.2 +x4.3 +x4.4 +x4.5 +x4.6 +x4.7 +x4.8 +x4.9 +x4.10 +x4.11 +x4.12 +x4.13 +x4.14 +x4.15 +x4.16 +x4.17 +x4.18 +x4.19 +x4.20 +x4.21 +x4.22 +x4.23 +x4.24 +x4.25 +x4.26 +x4.27 +x4.28 +x4.29 = 1;
+x5.0 +x5.1 +x5.2 +x5.3 +x5.4 +x5.5 +x5.6 +x5.7 +x5.8 +x5.9 +x5.10 +x5.11 +x5.12 +x5.13 +x5.14 +x5.15 +x5.16 +x5.17 +x5.18 +x5.19 +x5.20 +x5.21 +x5.22 +x5.23 +x5.24 +x5.25 +x5.26 +x5.27 +x5.28 +x5.29 = 1;
+x6.0 +x6.1 +x6.2 +x6.3 +x6.4 +x6.5 +x6.6 +x6.7 +x6.8 +x6.9 +x6.10 +x6.11 +x6.12 +x6.13 +x6.14 +x6.15 +x6.16 +x6.17 +x6.18 +x6.19 +x6.20 +x6.21 +x6.22 +x6.23 +x6.24 +x6.25 +x6.26 +x6.27 +x6.28 +x6.29 = 1;
+x7.0 +x7.1 +x7.2 +x7.3 +x7.4 +x7.5 +x7.6 +x7.7 +x7.8 +x7.9 +x7.10 +x7.11 +x7.12 +x7.13 +x7.14 +x7.15 +x7.16 +x7.17 +x7.18 +x7.19 +x7.20 +x7.21 +x7.22 +x7.23 +x7.24 +x7.25 +x7.26 +x7.27 +x7.28 +x7.29 = 1;
+x8.0 +x8.1 +x8.2 +x8.3 +x8.4 +x8.5 +x8.6 +x8.7 +x8.8 +x8.9 +x8.10 +x8.11 +x8.12 +x8.13 +x8.14 +x8.15 +x8.16 +x8.17 +x8.18 +x8.19 +x8.20 +x8.21 +x8.22 +x8.23 +x8.24 +x8.25 +x8.26 +x8.27 +x8.28 +x8.29 = 1;
+x9.0 +x9.1 +x9.2 +x9.3 +x9.4 +x9.5 +x9.6 +x9.7 +x9.8 +x9.9 +x9.10 +x9.11 +x9.12 +x9.13 +x9.14 +x9.15 +x9.16 +x9.17 +x9.18 +x9.19 +x9.20 +x9.21 +x9.22 +x9.23 +x9.24 +x9.25 +x9.26 +x9.27 +x9.28 +x9.29 = 1;
+x10.0 +x10.1 +x10.2 +x10.3 +x10.4 +x10.5 +x10.6 +x10.7 +x10.8 +x10.9 +x10.10 +x10.11 +x10.12 +x10.13 +x10.14 +x10.15 +x10.16 +x10.17 +x10.18 +x10.19 +x10.20 +x10.21 +x10.22 +x10.23 +x10.24 +x10.25 +x10.26 +x10.27 +x10.28 +x10.29 = 1;
+x11.0 +x11.1 +x11.2 +x11.3 +x11.4 +x11.5 +x11.6 +x11.7 +x11.8 +x11.9 +x11.10 +x11.11 +x11.12 +x11.13 +x11.14 +x11.15 +x11.16 +x11.17 +x11.18 +x11.19 +x11.20 +x11.21 +x11.22 +x11.23 +x11.24 +x11.25 +x11.26 +x11.27 +x11.28 +x11.29 = 1;
+x12.0 +x12.1 +x12.2 +x12.3 +x12.4 +x12.5 +x12.6 +x12.7 +x12.8 +x12.9 +x12.10 +x12.11 +x12.12 +x12.13 +x12.14 +x12.15 +x12.16 +x12.17 +x12.18 +x12.19 +x12.20 +x12.21 +x12.22 +x12.23 +x12.24 +x12.25 +x12.26 +x12.27 +x12.28 +x12.29 = 1;
+x13.0 +x13.1 +x13.2 +x13.3 +x13.4 +x13.5 +x13.6 +x13.7 +x13.8 +x13.9 +x13.10 +x13.11 +x13.12 +x13.13 +x13.14 +x13.15 +x13.16 +x13.17 +x13.18 +x13.19 +x13.20 +x13.21 +x13.22 +x13.23 +x13.24 +x13.25 +x13.26 +x13.27 +x13.28 +x13.29 = 1;
+x14.0 +x14.1 +x14.2 +x14.3 +x14.4 +x14.5 +x14.6 +x14.7 +x14.8 +x14.9 +x14.10 +x14.11 +x14.12 +x14.13 +x14.14 +x14.15 +x14.16 +x14.17 +x14.18 +x14.19 +x14.20 +x14.21 +x14.22 +x14.23 +x14.24 +x14.25 +x14.26 +x14.27 +x14.28 +x14.29 = 1;
+x15.0 +x15.1 +x15.2 +x15.3 +x15.4 +x15.5 +x15.6 +x15.7 +x15.8 +x15.9 +x15.10 +x15.11 +x15.12 +x15.13 +x15.14 +x15.15 +x15.16 +x15.17 +x15.18 +x15.19 +x15.20 +x15.21 +x15.22 +x15.23 +x15.24 +x15.25 +x15.26 +x15.27 +x15.28 +x15.29 = 1;
+x16.0 +x16.1 +x16.2 +x16.3 +x16.4 +x16.5 +x16.6 +x16.7 +x16.8 +x16.9 +x16.10 +x16.11 +x16.12 +x16.13 +x16.14 +x16.15 +x16.16 +x16.17 +x16.18 +x16.19 +x16.20 +x16.21 +x16.22 +x16.23 +x16.24 +x16.25 +x16.26 +x16.27 +x16.28 +x16.29 = 1;
+x17.0 +x17.1 +x17.2 +x17.3 +x17.4 +x17.5 +x17.6 +x17.7 +x17.8 +x17.9 +x17.10 +x17.11 +x17.12 +x17.13 +x17.14 +x17.15 +x17.16 +x17.17 +x17.18 +x17.19 +x17.20 +x17.21 +x17.22 +x17.23 +x17.24 +x17.25 +x17.26 +x17.27 +x17.28 +x17.29 = 1;
+x18.0 +x18.1 +x18.2 +x18.3 +x18.4 +x18.5 +x18.6 +x18.7 +x18.8 +x18.9 +x18.10 +x18.11 +x18.12 +x18.13 +x18.14 +x18.15 +x18.16 +x18.17 +x18.18 +x18.19 +x18.20 +x18.21 +x18.22 +x18.23 +x18.24 +x18.25 +x18.26 +x18.27 +x18.28 +x18.29 = 1;
+x19.0 +x19.1 +x19.2 +x19.3 +x19.4 +x19.5 +x19.6 +x19.7 +x19.8 +x19.9 +x19.10 +x19.11 +x19.12 +x19.13 +x19.14 +x19.15 +x19.16 +x19.17 +x19.18 +x19.19 +x19.20 +x19.21 +x19.22 +x19.23 +x19.24 +x19.25 +x19.26 +x19.27 +x19.28 +x19.29 = 1;
+x20.0 +x20.1 +x20.2 +x20.3 +x20.4 +x20.5 +x20.6 +x20.7 +x20.8 +x20.9 +x20.10 +x20.11 +x20.12 +x20.13 +x20.14 +x20.15 +x20.16 +x20.17 +x20.18 +x20.19 +x20.20 +x20.21 +x20.22 +x20.23 +x20.24 +x20.25 +x20.26 +x20.27 +x20.28 +x20.29 = 1;
+x21.0 +x21.1 +x21.2 +x21.3 +x21.4 +x21.5 +x21.6 +x21.7 +x21.8 +x21.9 +x21.10 +x21.11 +x21.12 +x21.13 +x21.14 +x21.15 +x21.16 +x21.17 +x21.18 +x21.19 +x21.20 +x21.21 +x21.22 +x21.23 +x21.24 +x21.25 +x21.26 +x21.27 +x21.28 +x21.29 = 1;
+x22.0 +x22.1 +x22.2 +x22.3 +x22.4 +x22.5 +x22.6 +x22.7 +x22.8 +x22.9 +x22.10 +x22.11 +x22.12 +x22.13 +x22.14 +x22.15 +x22.16 +x22.17 +x22.18 +x22.19 +x22.20 +x22.21 +x22.22 +x22.23 +x22.24 +x22.25 +x22.26 +x22.27 +x22.28 +x22.29 = 1;
+x23.0 +x23.1 +x23.2 +x23.3 +x23.4 +x23.5 +x23.6 +x23.7 +x23.8 +x23.9 +x23.10 +x23.11 +x23.12 +x23.13 +x23.14 +x23.15 +x23.16 +x23.17 +x23.18 +x23.19 +x23.20 +x23.21 +x23.22 +x23.23 +x23.24 +x23.25 +x23.26 +x23.27 +x23.28 +x23.29 = 1;
+x24.0 +x24.1 +x24.2 +x24.3 +x24.4 +x24.5 +x24.6 +x24.7 +x24.8 +x24.9 +x24.10 +x24.11 +x24.12 +x24.13 +x24.14 +x24.15 +x24.16 +x24.17 +x24.18 +x24.19 +x24.20 +x24.21 +x24.22 +x24.23 +x24.24 +x24.25 +x24.26 +x24.27 +x24.28 +x24.29 = 1;
+x25.0 +x25.1 +x25.2 +x25.3 +x25.4 +x25.5 +x25.6 +x25.7 +x25.8 +x25.9 +x25.10 +x25.11 +x25.12 +x25.13 +x25.14 +x25.15 +x25.16 +x25.17 +x25.18 +x25.19 +x25.20 +x25.21 +x25.22 +x25.23 +x25.24 +x25.25 +x25.26 +x25.27 +x25.28 +x25.29 = 1;
+x26.0 +x26.1 +x26.2 +x26.3 +x26.4 +x26.5 +x26.6 +x26.7 +x26.8 +x26.9 +x26.10 +x26.11 +x26.12 +x26.13 +x26.14 +x26.15 +x26.16 +x26.17 +x26.18 +x26.19 +x26.20 +x26.21 +x26.22 +x26.23 +x26.24 +x26.25 +x26.26 +x26.27 +x26.28 +x26.29 = 1;
+x27.0 +x27.1 +x27.2 +x27.3 +x27.4 +x27.5 +x27.6 +x27.7 +x27.8 +x27.9 +x27.10 +x27.11 +x27.12 +x27.13 +x27.14 +x27.15 +x27.16 +x27.17 +x27.18 +x27.19 +x27.20 +x27.21 +x27.22 +x27.23 +x27.24 +x27.25 +x27.26 +x27.27 +x27.28 +x27.29 = 1;
+x28.0 +x28.1 +x28.2 +x28.3 +x28.4 +x28.5 +x28.6 +x28.7 +x28.8 +x28.9 +x28.10 +x28.11 +x28.12 +x28.13 +x28.14 +x28.15 +x28.16 +x28.17 +x28.18 +x28.19 +x28.20 +x28.21 +x28.22 +x28.23 +x28.24 +x28.25 +x28.26 +x28.27 +x28.28 +x28.29 = 1;
+x29.0 +x29.1 +x29.2 +x29.3 +x29.4 +x29.5 +x29.6 +x29.7 +x29.8 +x29.9 +x29.10 +x29.11 +x29.12 +x29.13 +x29.14 +x29.15 +x29.16 +x29.17 +x29.18 +x29.19 +x29.20 +x29.21 +x29.22 +x29.23 +x29.24 +x29.25 +x29.26 +x29.27 +x29.28 +x29.29 = 1;
x0.0 <= y0;
x0.1 <= y1;
x0.2 <= y2;
x0.3 <= y3;
x0.4 <= y4;
x0.5 <= y5;
x0.6 <= y6;
x0.7 <= y7;
x0.8 <= y8;
x0.9 <= y9;
x0.10 <= y10;
x0.11 <= y11;
x0.12 <= y12;
x0.13 <= y13;
x0.14 <= y14;
x0.15 <= y15;
x0.16 <= y16;
x0.17 <= y17;
x0.18 <= y18;
x0.19 <= y19;
x0.20 <= y20;
x0.21 <= y21;
x0.22 <= y22;
x0.23 <= y23;
x0.24 <= y24;
x0.25 <= y25;
x0.26 <= y26;
x0.27 <= y27;
x0.28 <= y28;
x0.29 <= y29;
x1.0 <= y0;
x1.1 <= y1;
x1.2 <= y2;
x1.3 <= y3;
x1.4 <= y4;
x1.5 <= y5;
x1.6 <= y6;
x1.7 <= y7;
x1.8 <= y8;
x1.9 <= y9;
x1.10 <= y10;
x1.11 <= y11;
x1.12 <= y12;
x1.13 <= y13;
x1.14 <= y14;
x1.15 <= y15;
x1.16 <= y16;
x1.17 <= y17;
x1.18 <= y18;
x1.19 <= y19;
x1.20 <= y20;
x1.21 <= y21;
x1.22 <= y22;
x1.23 <= y23;
x1.24 <= y24;
x1.25 <= y25;
x1.26 <= y26;
x1.27 <= y27;
x1.28 <= y28;
x1.29 <= y29;
x2.0 <= y0;
x2.1 <= y1;
x2.2 <= y2;
x2.3 <= y3;
x2.4 <= y4;
x2.5 <= y5;
x2.6 <= y6;
x2.7 <= y7;
x2.8 <= y8;
x2.9 <= y9;
x2.10 <= y10;
x2.11 <= y11;
x2.12 <= y12;
x2.13 <= y13;
x2.14 <= y14;
x2.15 <= y15;
x2.16 <= y16;
x2.17 <= y17;
x2.18 <= y18;
x2.19 <= y19;
x2.20 <= y20;
x2.21 <= y21;
x2.22 <= y22;
x2.23 <= y23;
x2.24 <= y24;
x2.25 <= y25;
x2.26 <= y26;
x2.27 <= y27;
x2.28 <= y28;
x2.29 <= y29;
x3.0 <= y0;
x3.1 <= y1;
x3.2 <= y2;
x3.3 <= y3;
x3.4 <= y4;
x3.5 <= y5;
x3.6 <= y6;
x3.7 <= y7;
x3.8 <= y8;
x3.9 <= y9;
x3.10 <= y10;
x3.11 <= y11;
x3.12 <= y12;
x3.13 <= y13;
x3.14 <= y14;
x3.15 <= y15;
x3.16 <= y16;
x3.17 <= y17;
x3.18 <= y18;
x3.19 <= y19;
x3.20 <= y20;
x3.21 <= y21;
x3.22 <= y22;
x3.23 <= y23;
x3.24 <= y24;
x3.25 <= y25;
x3.26 <= y26;
x3.27 <= y27;
x3.28 <= y28;
x3.29 <= y29;
x4.0 <= y0;
x4.1 <= y1;
x4.2 <= y2;
x4.3 <= y3;
x4.4 <= y4;
x4.5 <= y5;
x4.6 <= y6;
x4.7 <= y7;
x4.8 <= y8;
x4.9 <= y9;
x4.10 <= y10;
x4.11 <= y11;
x4.12 <= y12;
x4.13 <= y13;
x4.14 <= y14;
x4.15 <= y15;
x4.16 <= y16;
x4.17 <= y17;
x4.18 <= y18;
x4.19 <= y19;
x4.20 <= y20;
x4.21 <= y21;
x4.22 <= y22;
x4.23 <= y23;
x4.24 <= y24;
x4.25 <= y25;
x4.26 <= y26;
x4.27 <= y27;
x4.28 <= y28;
x4.29 <= y29;
x5.0 <= y0;
x5.1 <= y1;
x5.2 <= y2;
x5.3 <= y3;
x5.4 <= y4;
x5.5 <= y5;
x5.6 <= y6;
x5.7 <= y7;
x5.8 <= y8;
x5.9 <= y9;
x5.10 <= y10;
x5.11 <= y11;
x5.12 <= y12;
x5.13 <= y13;
x5.14 <= y14;
x5.15 <= y15;
x5.16 <= y16;
x5.17 <= y17;
x5.18 <= y18;
x5.19 <= y19;
x5.20 <= y20;
x5.21 <= y21;
x5.22 <= y22;
x5.23 <= y23;
x5.24 <= y24;
x5.25 <= y25;
x5.26 <= y26;
x5.27 <= y27;
x5.28 <= y28;
x5.29 <= y29;
x6.0 <= y0;
x6.1 <= y1;
x6.2 <= y2;
x6.3 <= y3;
x6.4 <= y4;
x6.5 <= y5;
x6.6 <= y6;
x6.7 <= y7;
x6.8 <= y8;
x6.9 <= y9;
x6.10 <= y10;
x6.11 <= y11;
x6.12 <= y12;
x6.13 <= y13;
x6.14 <= y14;
x6.15 <= y15;
x6.16 <= y16;
x6.17 <= y17;
x6.18 <= y18;
x6.19 <= y19;
x6.20 <= y20;
x6.21 <= y21;
x6.22 <= y22;
x6.23 <= y23;
x6.24 <= y24;
x6.25 <= y25;
x6.26 <= y26;
x6.27 <= y27;
x6.28 <= y28;
x6.29 <= y29;
x7.0 <= y0;
x7.1 <= y1;
x7.2 <= y2;
x7.3 <= y3;
x7.4 <= y4;
x7.5 <= y5;
x7.6 <= y6;
x7.7 <= y7;
x7.8 <= y8;
x7.9 <= y9;
x7.10 <= y10;
x7.11 <= y11;
x7.12 <= y12;
x7.13 <= y13;
x7.14 <= y14;
x7.15 <= y15;
x7.16 <= y16;
x7.17 <= y17;
x7.18 <= y18;
x7.19 <= y19;
x7.20 <= y20;
x7.21 <= y21;
x7.22 <= y22;
x7.23 <= y23;
x7.24 <= y24;
x7.25 <= y25;
x7.26 <= y26;
x7.27 <= y27;
x7.28 <= y28;
x7.29 <= y29;
x8.0 <= y0;
x8.1 <= y1;
x8.2 <= y2;
x8.3 <= y3;
x8.4 <= y4;
x8.5 <= y5;
x8.6 <= y6;
x8.7 <= y7;
x8.8 <= y8;
x8.9 <= y9;
x8.10 <= y10;
x8.11 <= y11;
x8.12 <= y12;
x8.13 <= y13;
x8.14 <= y14;
x8.15 <= y15;
x8.16 <= y16;
x8.17 <= y17;
x8.18 <= y18;
x8.19 <= y19;
x8.20 <= y20;
x8.21 <= y21;
x8.22 <= y22;
x8.23 <= y23;
x8.24 <= y24;
x8.25 <= y25;
x8.26 <= y26;
x8.27 <= y27;
x8.28 <= y28;
x8.29 <= y29;
x9.0 <= y0;
x9.1 <= y1;
x9.2 <= y2;
x9.3 <= y3;
x9.4 <= y4;
x9.5 <= y5;
x9.6 <= y6;
x9.7 <= y7;
x9.8 <= y8;
x9.9 <= y9;
x9.10 <= y10;
x9.11 <= y11;
x9.12 <= y12;
x9.13 <= y13;
x9.14 <= y14;
x9.15 <= y15;
x9.16 <= y16;
x9.17 <= y17;
x9.18 <= y18;
x9.19 <= y19;
x9.20 <= y20;
x9.21 <= y21;
x9.22 <= y22;
x9.23 <= y23;
x9.24 <= y24;
x9.25 <= y25;
x9.26 <= y26;
x9.27 <= y27;
x9.28 <= y28;
x9.29 <= y29;
x10.0 <= y0;
x10.1 <= y1;
x10.2 <= y2;
x10.3 <= y3;
x10.4 <= y4;
x10.5 <= y5;
x10.6 <= y6;
x10.7 <= y7;
x10.8 <= y8;
x10.9 <= y9;
x10.10 <= y10;
x10.11 <= y11;
x10.12 <= y12;
x10.13 <= y13;
x10.14 <= y14;
x10.15 <= y15;
x10.16 <= y16;
x10.17 <= y17;
x10.18 <= y18;
x10.19 <= y19;
x10.20 <= y20;
x10.21 <= y21;
x10.22 <= y22;
x10.23 <= y23;
x10.24 <= y24;
x10.25 <= y25;
x10.26 <= y26;
x10.27 <= y27;
x10.28 <= y28;
x10.29 <= y29;
x11.0 <= y0;
x11.1 <= y1;
x11.2 <= y2;
x11.3 <= y3;
x11.4 <= y4;
x11.5 <= y5;
x11.6 <= y6;
x11.7 <= y7;
x11.8 <= y8;
x11.9 <= y9;
x11.10 <= y10;
x11.11 <= y11;
x11.12 <= y12;
x11.13 <= y13;
x11.14 <= y14;
x11.15 <= y15;
x11.16 <= y16;
x11.17 <= y17;
x11.18 <= y18;
x11.19 <= y19;
x11.20 <= y20;
x11.21 <= y21;
x11.22 <= y22;
x11.23 <= y23;
x11.24 <= y24;
x11.25 <= y25;
x11.26 <= y26;
x11.27 <= y27;
x11.28 <= y28;
x11.29 <= y29;
x12.0 <= y0;
x12.1 <= y1;
x12.2 <= y2;
x12.3 <= y3;
x12.4 <= y4;
x12.5 <= y5;
x12.6 <= y6;
x12.7 <= y7;
x12.8 <= y8;
x12.9 <= y9;
x12.10 <= y10;
x12.11 <= y11;
x12.12 <= y12;
x12.13 <= y13;
x12.14 <= y14;
x12.15 <= y15;
x12.16 <= y16;
x12.17 <= y17;
x12.18 <= y18;
x12.19 <= y19;
x12.20 <= y20;
x12.21 <= y21;
x12.22 <= y22;
x12.23 <= y23;
x12.24 <= y24;
x12.25 <= y25;
x12.26 <= y26;
x12.27 <= y27;
x12.28 <= y28;
x12.29 <= y29;
x13.0 <= y0;
x13.1 <= y1;
x13.2 <= y2;
x13.3 <= y3;
x13.4 <= y4;
x13.5 <= y5;
x13.6 <= y6;
x13.7 <= y7;
x13.8 <= y8;
x13.9 <= y9;
x13.10 <= y10;
x13.11 <= y11;
x13.12 <= y12;
x13.13 <= y13;
x13.14 <= y14;
x13.15 <= y15;
x13.16 <= y16;
x13.17 <= y17;
x13.18 <= y18;
x13.19 <= y19;
x13.20 <= y20;
x13.21 <= y21;
x13.22 <= y22;
x13.23 <= y23;
x13.24 <= y24;
x13.25 <= y25;
x13.26 <= y26;
x13.27 <= y27;
x13.28 <= y28;
x13.29 <= y29;
x14.0 <= y0;
x14.1 <= y1;
x14.2 <= y2;
x14.3 <= y3;
x14.4 <= y4;
x14.5 <= y5;
x14.6 <= y6;
x14.7 <= y7;
x14.8 <= y8;
x14.9 <= y9;
x14.10 <= y10;
x14.11 <= y11;
x14.12 <= y12;
x14.13 <= y13;
x14.14 <= y14;
x14.15 <= y15;
x14.16 <= y16;
x14.17 <= y17;
x14.18 <= y18;
x14.19 <= y19;
x14.20 <= y20;
x14.21 <= y21;
x14.22 <= y22;
x14.23 <= y23;
x14.24 <= y24;
x14.25 <= y25;
x14.26 <= y26;
x14.27 <= y27;
x14.28 <= y28;
x14.29 <= y29;
x15.0 <= y0;
x15.1 <= y1;
x15.2 <= y2;
x15.3 <= y3;
x15.4 <= y4;
x15.5 <= y5;
x15.6 <= y6;
x15.7 <= y7;
x15.8 <= y8;
x15.9 <= y9;
x15.10 <= y10;
x15.11 <= y11;
x15.12 <= y12;
x15.13 <= y13;
x15.14 <= y14;
x15.15 <= y15;
x15.16 <= y16;
x15.17 <= y17;
x15.18 <= y18;
x15.19 <= y19;
x15.20 <= y20;
x15.21 <= y21;
x15.22 <= y22;
x15.23 <= y23;
x15.24 <= y24;
x15.25 <= y25;
x15.26 <= y26;
x15.27 <= y27;
x15.28 <= y28;
x15.29 <= y29;
x16.0 <= y0;
x16.1 <= y1;
x16.2 <= y2;
x16.3 <= y3;
x16.4 <= y4;
x16.5 <= y5;
x16.6 <= y6;
x16.7 <= y7;
x16.8 <= y8;
x16.9 <= y9;
x16.10 <= y10;
x16.11 <= y11;
x16.12 <= y12;
x16.13 <= y13;
x16.14 <= y14;
x16.15 <= y15;
x16.16 <= y16;
x16.17 <= y17;
x16.18 <= y18;
x16.19 <= y19;
x16.20 <= y20;
x16.21 <= y21;
x16.22 <= y22;
x16.23 <= y23;
x16.24 <= y24;
x16.25 <= y25;
x16.26 <= y26;
x16.27 <= y27;
x16.28 <= y28;
x16.29 <= y29;
x17.0 <= y0;
x17.1 <= y1;
x17.2 <= y2;
x17.3 <= y3;
x17.4 <= y4;
x17.5 <= y5;
x17.6 <= y6;
x17.7 <= y7;
x17.8 <= y8;
x17.9 <= y9;
x17.10 <= y10;
x17.11 <= y11;
x17.12 <= y12;
x17.13 <= y13;
x17.14 <= y14;
x17.15 <= y15;
x17.16 <= y16;
x17.17 <= y17;
x17.18 <= y18;
x17.19 <= y19;
x17.20 <= y20;
x17.21 <= y21;
x17.22 <= y22;
x17.23 <= y23;
x17.24 <= y24;
x17.25 <= y25;
x17.26 <= y26;
x17.27 <= y27;
x17.28 <= y28;
x17.29 <= y29;
x18.0 <= y0;
x18.1 <= y1;
x18.2 <= y2;
x18.3 <= y3;
x18.4 <= y4;
x18.5 <= y5;
x18.6 <= y6;
x18.7 <= y7;
x18.8 <= y8;
x18.9 <= y9;
x18.10 <= y10;
x18.11 <= y11;
x18.12 <= y12;
x18.13 <= y13;
x18.14 <= y14;
x18.15 <= y15;
x18.16 <= y16;
x18.17 <= y17;
x18.18 <= y18;
x18.19 <= y19;
x18.20 <= y20;
x18.21 <= y21;
x18.22 <= y22;
x18.23 <= y23;
x18.24 <= y24;
x18.25 <= y25;
x18.26 <= y26;
x18.27 <= y27;
x18.28 <= y28;
x18.29 <= y29;
x19.0 <= y0;
x19.1 <= y1;
x19.2 <= y2;
x19.3 <= y3;
x19.4 <= y4;
x19.5 <= y5;
x19.6 <= y6;
x19.7 <= y7;
x19.8 <= y8;
x19.9 <= y9;
x19.10 <= y10;
x19.11 <= y11;
x19.12 <= y12;
x19.13 <= y13;
x19.14 <= y14;
x19.15 <= y15;
x19.16 <= y16;
x19.17 <= y17;
x19.18 <= y18;
x19.19 <= y19;
x19.20 <= y20;
x19.21 <= y21;
x19.22 <= y22;
x19.23 <= y23;
x19.24 <= y24;
x19.25 <= y25;
x19.26 <= y26;
x19.27 <= y27;
x19.28 <= y28;
x19.29 <= y29;
x20.0 <= y0;
x20.1 <= y1;
x20.2 <= y2;
x20.3 <= y3;
x20.4 <= y4;
x20.5 <= y5;
x20.6 <= y6;
x20.7 <= y7;
x20.8 <= y8;
x20.9 <= y9;
x20.10 <= y10;
x20.11 <= y11;
x20.12 <= y12;
x20.13 <= y13;
x20.14 <= y14;
x20.15 <= y15;
x20.16 <= y16;
x20.17 <= y17;
x20.18 <= y18;
x20.19 <= y19;
x20.20 <= y20;
x20.21 <= y21;
x20.22 <= y22;
x20.23 <= y23;
x20.24 <= y24;
x20.25 <= y25;
x20.26 <= y26;
x20.27 <= y27;
x20.28 <= y28;
x20.29 <= y29;
x21.0 <= y0;
x21.1 <= y1;
x21.2 <= y2;
x21.3 <= y3;
x21.4 <= y4;
x21.5 <= y5;
x21.6 <= y6;
x21.7 <= y7;
x21.8 <= y8;
x21.9 <= y9;
x21.10 <= y10;
x21.11 <= y11;
x21.12 <= y12;
x21.13 <= y13;
x21.14 <= y14;
x21.15 <= y15;
x21.16 <= y16;
x21.17 <= y17;
x21.18 <= y18;
x21.19 <= y19;
x21.20 <= y20;
x21.21 <= y21;
x21.22 <= y22;
x21.23 <= y23;
x21.24 <= y24;
x21.25 <= y25;
x21.26 <= y26;
x21.27 <= y27;
x21.28 <= y28;
x21.29 <= y29;
x22.0 <= y0;
x22.1 <= y1;
x22.2 <= y2;
x22.3 <= y3;
x22.4 <= y4;
x22.5 <= y5;
x22.6 <= y6;
x22.7 <= y7;
x22.8 <= y8;
x22.9 <= y9;
x22.10 <= y10;
x22.11 <= y11;
x22.12 <= y12;
x22.13 <= y13;
x22.14 <= y14;
x22.15 <= y15;
x22.16 <= y16;
x22.17 <= y17;
x22.18 <= y18;
x22.19 <= y19;
x22.20 <= y20;
x22.21 <= y21;
x22.22 <= y22;
x22.23 <= y23;
x22.24 <= y24;
x22.25 <= y25;
x22.26 <= y26;
x22.27 <= y27;
x22.28 <= y28;
x22.29 <= y29;
x23.0 <= y0;
x23.1 <= y1;
x23.2 <= y2;
x23.3 <= y3;
x23.4 <= y4;
x23.5 <= y5;
x23.6 <= y6;
x23.7 <= y7;
x23.8 <= y8;
x23.9 <= y9;
x23.10 <= y10;
x23.11 <= y11;
x23.12 <= y12;
x23.13 <= y13;
x23.14 <= y14;
x23.15 <= y15;
x23.16 <= y16;
x23.17 <= y17;
x23.18 <= y18;
x23.19 <= y19;
x23.20 <= y20;
x23.21 <= y21;
x23.22 <= y22;
x23.23 <= y23;
x23.24 <= y24;
x23.25 <= y25;
x23.26 <= y26;
x23.27 <= y27;
x23.28 <= y28;
x23.29 <= y29;
x24.0 <= y0;
x24.1 <= y1;
x24.2 <= y2;
x24.3 <= y3;
x24.4 <= y4;
x24.5 <= y5;
x24.6 <= y6;
x24.7 <= y7;
x24.8 <= y8;
x24.9 <= y9;
x24.10 <= y10;
x24.11 <= y11;
x24.12 <= y12;
x24.13 <= y13;
x24.14 <= y14;
x24.15 <= y15;
x24.16 <= y16;
x24.17 <= y17;
x24.18 <= y18;
x24.19 <= y19;
x24.20 <= y20;
x24.21 <= y21;
x24.22 <= y22;
x24.23 <= y23;
x24.24 <= y24;
x24.25 <= y25;
x24.26 <= y26;
x24.27 <= y27;
x24.28 <= y28;
x24.29 <= y29;
x25.0 <= y0;
x25.1 <= y1;
x25.2 <= y2;
x25.3 <= y3;
x25.4 <= y4;
x25.5 <= y5;
x25.6 <= y6;
x25.7 <= y7;
x25.8 <= y8;
x25.9 <= y9;
x25.10 <= y10;
x25.11 <= y11;
x25.12 <= y12;
x25.13 <= y13;
x25.14 <= y14;
x25.15 <= y15;
x25.16 <= y16;
x25.17 <= y17;
x25.18 <= y18;
x25.19 <= y19;
x25.20 <= y20;
x25.21 <= y21;
x25.22 <= y22;
x25.23 <= y23;
x25.24 <= y24;
x25.25 <= y25;
x25.26 <= y26;
x25.27 <= y27;
x25.28 <= y28;
x25.29 <= y29;
x26.0 <= y0;
x26.1 <= y1;
x26.2 <= y2;
x26.3 <= y3;
x26.4 <= y4;
x26.5 <= y5;
x26.6 <= y6;
x26.7 <= y7;
x26.8 <= y8;
x26.9 <= y9;
x26.10 <= y10;
x26.11 <= y11;
x26.12 <= y12;
x26.13 <= y13;
x26.14 <= y14;
x26.15 <= y15;
x26.16 <= y16;
x26.17 <= y17;
x26.18 <= y18;
x26.19 <= y19;
x26.20 <= y20;
x26.21 <= y21;
x26.22 <= y22;
x26.23 <= y23;
x26.24 <= y24;
x26.25 <= y25;
x26.26 <= y26;
x26.27 <= y27;
x26.28 <= y28;
x26.29 <= y29;
x27.0 <= y0;
x27.1 <= y1;
x27.2 <= y2;
x27.3 <= y3;
x27.4 <= y4;
x27.5 <= y5;
x27.6 <= y6;
x27.7 <= y7;
x27.8 <= y8;
x27.9 <= y9;
x27.10 <= y10;
x27.11 <= y11;
x27.12 <= y12;
x27.13 <= y13;
x27.14 <= y14;
x27.15 <= y15;
x27.16 <= y16;
x27.17 <= y17;
x27.18 <= y18;
x27.19 <= y19;
x27.20 <= y20;
x27.21 <= y21;
x27.22 <= y22;
x27.23 <= y23;
x27.24 <= y24;
x27.25 <= y25;
x27.26 <= y26;
x27.27 <= y27;
x27.28 <= y28;
x27.29 <= y29;
x28.0 <= y0;
x28.1 <= y1;
x28.2 <= y2;
x28.3 <= y3;
x28.4 <= y4;
x28.5 <= y5;
x28.6 <= y6;
x28.7 <= y7;
x28.8 <= y8;
x28.9 <= y9;
x28.10 <= y10;
x28.11 <= y11;
x28.12 <= y12;
x28.13 <= y13;
x28.14 <= y14;
x28.15 <= y15;
x28.16 <= y16;
x28.17 <= y17;
x28.18 <= y18;
x28.19 <= y19;
x28.20 <= y20;
x28.21 <= y21;
x28.22 <= y22;
x28.23 <= y23;
x28.24 <= y24;
x28.25 <= y25;
x28.26 <= y26;
x28.27 <= y27;
x28.28 <= y28;
x28.29 <= y29;
x29.0 <= y0;
x29.1 <= y1;
x29.2 <= y2;
x29.3 <= y3;
x29.4 <= y4;
x29.5 <= y5;
x29.6 <= y6;
x29.7 <= y7;
x29.8 <= y8;
x29.9 <= y9;
x29.10 <= y10;
x29.11 <= y11;
x29.12 <= y12;
x29.13 <= y13;
x29.14 <= y14;
x29.15 <= y15;
x29.16 <= y16;
x29.17 <= y17;
x29.18 <= y18;
x29.19 <= y19;
x29.20 <= y20;
x29.21 <= y21;
x29.22 <= y22;
x29.23 <= y23;
x29.24 <= y24;
x29.25 <= y25;
x29.26 <= y26;
x29.27 <= y27;
x29.28 <= y28;
x29.29 <= y29;
 z +0x0.0 -33x0.1 -56x0.2 -27x0.3 -26x0.4 -52x0.5 -34x0.6 -50x0.7 -14x0.8 -22x0.9 -38x0.10 -47x0.11 -29x0.12 -39x0.13 -59x0.14 -13x0.15 -55x0.16 -67x0.17 -33x0.18 -49x0.19 -45x0.20 -68x0.21 -25x0.22 -64x0.23 -64x0.24 -54x0.25 -33x0.26 -44x0.27 -50x0.28 -58x0.29  >= 0;
 z -33x1.0 +0x1.1 -42x1.2 -30x1.3 -22x1.4 -49x1.5 -18x1.6 -49x1.7 -43x1.8 -55x1.9 -15x1.10 -25x1.11 -46x1.12 -14x1.13 -62x1.14 -20x1.15 -47x1.16 -44x1.17 -40x1.18 -48x1.19 -46x1.20 -48x1.21 -54x1.22 -43x1.23 -41x1.24 -29x1.25 -13x1.26 -51x1.27 -29x1.28 -66x1.29  >= 0;
 z -56x2.0 -42x2.1 +0x2.2 -29x2.3 -60x2.4 -18x2.5 -29x2.6 -50x2.7 -42x2.8 -78x2.9 -54x2.10 -39x2.11 -50x2.12 -28x2.13 -81x2.14 -45x2.15 -58x2.16 -66x2.17 -25x2.18 -62x2.19 -57x2.20 -49x2.21 -53x2.22 -57x2.23 -55x2.24 -43x2.25 -30x2.26 -36x2.27 -71x2.28 -81x2.29  >= 0;
 z -27x3.0 -30x3.1 -29x3.2 +0x3.3 -51x3.4 -33x3.5 -12x3.6 -23x3.7 -13x3.8 -49x3.9 -37x3.10 -37x3.11 -45x3.12 -26x3.13 -58x3.14 -33x3.15 -41x3.16 -66x3.17 -36x3.18 -41x3.19 -44x3.20 -58x3.21 -24x3.22 -55x3.23 -42x3.24 -41x3.25 -43x3.26 -47x3.27 -49x3.28 -57x3.29  >= 0;
 z -26x4.0 -22x4.1 -60x4.2 -51x4.3 +0x4.4 -42x4.5 -40x4.6 -28x4.7 -40x4.8 -48x4.9 -37x4.10 -33x4.11 -54x4.12 -36x4.13 -63x4.14 -39x4.15 -34x4.16 -66x4.17 -56x4.18 -55x4.19 -24x4.20 -43x4.21 -51x4.22 -63x4.23 -61x4.24 -51x4.25 -35x4.26 -67x4.27 -51x4.28 -44x4.29  >= 0;
 z -52x5.0 -49x5.1 -18x5.2 -33x5.3 -42x5.4 +0x5.5 -45x5.6 -56x5.7 -38x5.8 -72x5.9 -64x5.10 -57x5.11 -60x5.12 -46x5.13 -91x5.14 -56x5.15 -72x5.16 -84x5.17 -43x5.18 -74x5.19 -66x5.20 -62x5.21 -48x5.22 -57x5.23 -73x5.24 -61x5.25 -36x5.26 -54x5.27 -73x5.28 -82x5.29  >= 0;
 z -34x6.0 -18x6.1 -29x6.2 -12x6.3 -40x6.4 -45x6.5 +0x6.6 -35x6.7 -25x6.8 -56x6.9 -25x6.10 -29x6.11 -33x6.12 -32x6.13 -67x6.14 -21x6.15 -29x6.16 -54x6.17 -24x6.18 -52x6.19 -39x6.20 -56x6.21 -36x6.22 -61x6.23 -30x6.24 -32x6.25 -31x6.26 -35x6.27 -47x6.28 -69x6.29  >= 0;
 z -50x7.0 -49x7.1 -50x7.2 -23x7.3 -28x7.4 -56x7.5 -35x7.6 +0x7.7 -36x7.8 -31x7.9 -60x7.10 -47x7.11 -26x7.12 -49x7.13 -35x7.14 -56x7.15 -28x7.16 -58x7.17 -51x7.18 -64x7.19 -38x7.20 -35x7.21 -47x7.22 -35x7.23 -55x7.24 -50x7.25 -62x7.26 -48x7.27 -72x7.28 -72x7.29  >= 0;
 z -14x8.0 -43x8.1 -42x8.2 -13x8.3 -40x8.4 -38x8.5 -25x8.6 -36x8.7 +0x8.8 -36x8.9 -29x8.10 -50x8.11 -35x8.12 -39x8.13 -70x8.14 -27x8.15 -41x8.16 -58x8.17 -24x8.18 -54x8.19 -31x8.20 -71x8.21 -11x8.22 -50x8.23 -55x8.24 -54x8.25 -47x8.26 -35x8.27 -36x8.28 -44x8.29  >= 0;
 z -22x9.0 -55x9.1 -78x9.2 -49x9.3 -48x9.4 -72x9.5 -56x9.6 -31x9.7 -36x9.8 +0x9.9 -60x9.10 -56x9.11 -35x9.12 -61x9.13 -66x9.14 -35x9.15 -42x9.16 -73x9.17 -55x9.18 -63x9.19 -32x9.20 -66x9.21 -47x9.22 -66x9.23 -69x9.24 -76x9.25 -55x9.26 -57x9.27 -72x9.28 -80x9.29  >= 0;
 z -38x10.0 -15x10.1 -54x10.2 -37x10.3 -37x10.4 -64x10.5 -25x10.6 -60x10.7 -29x10.8 -60x10.9 +0x10.10 -40x10.11 -40x10.12 -29x10.13 -52x10.14 -35x10.15 -54x10.16 -29x10.17 -34x10.18 -63x10.19 -60x10.20 -63x10.21 -40x10.22 -38x10.23 -55x10.24 -44x10.25 -28x10.26 -45x10.27 -44x10.28 -73x10.29  >= 0;
 z -47x11.0 -25x11.1 -39x11.2 -37x11.3 -33x11.4 -57x11.5 -29x11.6 -47x11.7 -50x11.8 -56x11.9 -40x11.10 +0x11.11 -21x11.12 -11x11.13 -42x11.14 -34x11.15 -49x11.16 -65x11.17 -46x11.18 -23x11.19 -54x11.20 -37x11.21 -61x11.22 -40x11.23 -38x11.24 -23x11.25 -38x11.26 -43x11.27 -54x11.28 -77x11.29  >= 0;
 z -29x12.0 -46x12.1 -50x12.2 -45x12.3 -54x12.4 -60x12.5 -33x12.6 -26x12.7 -35x12.8 -35x12.9 -40x12.10 -21x12.11 +0x12.12 -32x12.13 -51x12.14 -42x12.15 -54x12.16 -66x12.17 -25x12.18 -44x12.19 -57x12.20 -58x12.21 -46x12.22 -61x12.23 -59x12.24 -44x12.25 -59x12.26 -22x12.27 -71x12.28 -79x12.29  >= 0;
 z -39x13.0 -14x13.1 -28x13.2 -26x13.3 -36x13.4 -46x13.5 -32x13.6 -49x13.7 -39x13.8 -61x13.9 -29x13.10 -11x13.11 -32x13.12 +0x13.13 -53x13.14 -34x13.15 -54x13.16 -58x13.17 -53x13.18 -34x13.19 -60x13.20 -39x13.21 -50x13.22 -29x13.23 -27x13.24 -15x13.25 -27x13.26 -54x13.27 -43x13.28 -80x13.29  >= 0;
 z -59x14.0 -62x14.1 -81x14.2 -58x14.3 -63x14.4 -91x14.5 -67x14.6 -35x14.7 -70x14.8 -66x14.9 -52x14.10 -42x14.11 -51x14.12 -53x14.13 +0x14.14 -46x14.15 -63x14.16 -23x14.17 -64x14.18 -65x14.19 -69x14.20 -56x14.21 -81x14.22 -70x14.23 -80x14.24 -65x14.25 -66x14.26 -73x14.27 -91x14.28 -107x14.29  >= 0;
 z -13x15.0 -20x15.1 -45x15.2 -33x15.3 -39x15.4 -56x15.5 -21x15.6 -56x15.7 -27x15.8 -35x15.9 -35x15.10 -34x15.11 -42x15.12 -34x15.13 -46x15.14 +0x15.15 -50x15.16 -61x15.17 -20x15.18 -36x15.19 -52x15.20 -55x15.21 -38x15.22 -63x15.23 -51x15.24 -49x15.25 -20x15.26 -31x15.27 -49x15.28 -71x15.29  >= 0;
 z -55x16.0 -47x16.1 -58x16.2 -41x16.3 -34x16.4 -72x16.5 -29x16.6 -28x16.7 -41x16.8 -42x16.9 -54x16.10 -49x16.11 -54x16.12 -54x16.13 -63x16.14 -50x16.15 +0x16.16 -83x16.17 -42x16.18 -41x16.19 -10x16.20 -63x16.21 -52x16.22 -63x16.23 -27x16.24 -48x16.25 -36x16.26 -53x16.27 -69x16.28 -78x16.29  >= 0;
 z -67x17.0 -44x17.1 -66x17.2 -66x17.3 -66x17.4 -84x17.5 -54x17.6 -58x17.7 -58x17.8 -73x17.9 -29x17.10 -65x17.11 -66x17.12 -58x17.13 -23x17.14 -61x17.15 -83x17.16 +0x17.17 -41x17.18 -88x17.19 -73x17.20 -79x17.21 -69x17.22 -67x17.23 -84x17.24 -73x17.25 -57x17.26 -52x17.27 -73x17.28 -97x17.29  >= 0;
 z -33x18.0 -40x18.1 -25x18.2 -36x18.3 -56x18.4 -43x18.5 -24x18.6 -51x18.7 -24x18.8 -55x18.9 -34x18.10 -46x18.11 -25x18.12 -53x18.13 -64x18.14 -20x18.15 -42x18.16 -41x18.17 +0x18.18 -56x18.19 -32x18.20 -58x18.21 -34x18.22 -57x18.23 -54x18.24 -56x18.25 -40x18.26 -11x18.27 -59x18.28 -56x18.29  >= 0;
 z -49x19.0 -48x19.1 -62x19.2 -41x19.3 -55x19.4 -74x19.5 -52x19.6 -64x19.7 -54x19.8 -63x19.9 -63x19.10 -23x19.11 -44x19.12 -34x19.13 -65x19.14 -36x19.15 -41x19.16 -88x19.17 -56x19.18 +0x19.19 -31x19.20 -60x19.21 -65x19.22 -63x19.23 -61x19.24 -46x19.25 -56x19.26 -66x19.27 -77x19.28 -70x19.29  >= 0;
 z -45x20.0 -46x20.1 -57x20.2 -44x20.3 -24x20.4 -66x20.5 -39x20.6 -38x20.7 -31x20.8 -32x20.9 -60x20.10 -54x20.11 -57x20.12 -60x20.13 -69x20.14 -52x20.15 -10x20.16 -73x20.17 -32x20.18 -31x20.19 +0x20.20 -67x20.21 -42x20.22 -73x20.23 -37x20.24 -58x20.25 -46x20.26 -43x20.27 -67x20.28 -68x20.29  >= 0;
 z -68x21.0 -48x21.1 -49x21.2 -58x21.3 -43x21.4 -62x21.5 -56x21.6 -35x21.7 -71x21.8 -66x21.9 -63x21.10 -37x21.11 -58x21.12 -39x21.13 -56x21.14 -55x21.15 -63x21.16 -79x21.17 -58x21.18 -60x21.19 -67x21.20 +0x21.21 -82x21.22 -30x21.23 -66x21.24 -24x21.25 -35x21.26 -47x21.27 -77x21.28 -69x21.29  >= 0;
 z -25x22.0 -54x22.1 -53x22.2 -24x22.3 -51x22.4 -48x22.5 -36x22.6 -47x22.7 -11x22.8 -47x22.9 -40x22.10 -61x22.11 -46x22.12 -50x22.13 -81x22.14 -38x22.15 -52x22.16 -69x22.17 -34x22.18 -65x22.19 -42x22.20 -82x22.21 +0x22.22 -61x22.23 -66x22.24 -65x22.25 -57x22.26 -45x22.27 -25x22.28 -53x22.29  >= 0;
 z -64x23.0 -43x23.1 -57x23.2 -55x23.3 -63x23.4 -57x23.5 -61x23.6 -35x23.7 -50x23.8 -66x23.9 -38x23.10 -40x23.11 -61x23.12 -29x23.13 -70x23.14 -63x23.15 -63x23.16 -67x23.17 -57x23.18 -63x23.19 -73x23.20 -30x23.21 -61x23.22 +0x23.23 -56x23.24 -44x23.25 -56x23.26 -68x23.27 -72x23.28 -94x23.29  >= 0;
 z -64x24.0 -41x24.1 -55x24.2 -42x24.3 -61x24.4 -73x24.5 -30x24.6 -55x24.7 -55x24.8 -69x24.9 -55x24.10 -38x24.11 -59x24.12 -27x24.13 -80x24.14 -51x24.15 -27x24.16 -84x24.17 -54x24.18 -61x24.19 -37x24.20 -66x24.21 -66x24.22 -56x24.23 +0x24.24 -42x24.25 -54x24.26 -65x24.27 -70x24.28 -99x24.29  >= 0;
 z -54x25.0 -29x25.1 -43x25.2 -41x25.3 -51x25.4 -61x25.5 -32x25.6 -50x25.7 -54x25.8 -76x25.9 -44x25.10 -23x25.11 -44x25.12 -15x25.13 -65x25.14 -49x25.15 -48x25.16 -73x25.17 -56x25.18 -46x25.19 -58x25.20 -24x25.21 -65x25.22 -44x25.23 -42x25.24 +0x25.25 -42x25.26 -66x25.27 -58x25.28 -93x25.29  >= 0;
 z -33x26.0 -13x26.1 -30x26.2 -43x26.3 -35x26.4 -36x26.5 -31x26.6 -62x26.7 -47x26.8 -55x26.9 -28x26.10 -38x26.11 -59x26.12 -27x26.13 -66x26.14 -20x26.15 -36x26.16 -57x26.17 -40x26.18 -56x26.19 -46x26.20 -35x26.21 -57x26.22 -56x26.23 -54x26.24 -42x26.25 +0x26.26 -44x26.27 -42x26.28 -79x26.29  >= 0;
 z -44x27.0 -51x27.1 -36x27.2 -47x27.3 -67x27.4 -54x27.5 -35x27.6 -48x27.7 -35x27.8 -57x27.9 -45x27.10 -43x27.11 -22x27.12 -54x27.13 -73x27.14 -31x27.15 -53x27.16 -52x27.17 -11x27.18 -66x27.19 -43x27.20 -47x27.21 -45x27.22 -68x27.23 -65x27.24 -66x27.25 -44x27.26 +0x27.27 -70x27.28 -57x27.29  >= 0;
 z -50x28.0 -29x28.1 -71x28.2 -49x28.3 -51x28.4 -73x28.5 -47x28.6 -72x28.7 -36x28.8 -72x28.9 -44x28.10 -54x28.11 -71x28.12 -43x28.13 -91x28.14 -49x28.15 -69x28.16 -73x28.17 -59x28.18 -77x28.19 -67x28.20 -77x28.21 -25x28.22 -72x28.23 -70x28.24 -58x28.25 -42x28.26 -70x28.27 +0x28.28 -78x28.29  >= 0;
 z -58x29.0 -66x29.1 -81x29.2 -57x29.3 -44x29.4 -82x29.5 -69x29.6 -72x29.7 -44x29.8 -80x29.9 -73x29.10 -77x29.11 -79x29.12 -80x29.13 -107x29.14 -71x29.15 -78x29.16 -97x29.17 -56x29.18 -70x29.19 -68x29.20 -69x29.21 -53x29.22 -94x29.23 -99x29.24 -93x29.25 -79x29.26 -57x29.27 -78x29.28 +0x29.29  >= 0;
bin y0;
bin x0.0;
bin x0.1;
bin x0.2;
bin x0.3;
bin x0.4;
bin x0.5;
bin x0.6;
bin x0.7;
bin x0.8;
bin x0.9;
bin x0.10;
bin x0.11;
bin x0.12;
bin x0.13;
bin x0.14;
bin x0.15;
bin x0.16;
bin x0.17;
bin x0.18;
bin x0.19;
bin x0.20;
bin x0.21;
bin x0.22;
bin x0.23;
bin x0.24;
bin x0.25;
bin x0.26;
bin x0.27;
bin x0.28;
bin x0.29;
bin y1;
bin x1.0;
bin x1.1;
bin x1.2;
bin x1.3;
bin x1.4;
bin x1.5;
bin x1.6;
bin x1.7;
bin x1.8;
bin x1.9;
bin x1.10;
bin x1.11;
bin x1.12;
bin x1.13;
bin x1.14;
bin x1.15;
bin x1.16;
bin x1.17;
bin x1.18;
bin x1.19;
bin x1.20;
bin x1.21;
bin x1.22;
bin x1.23;
bin x1.24;
bin x1.25;
bin x1.26;
bin x1.27;
bin x1.28;
bin x1.29;
bin y2;
bin x2.0;
bin x2.1;
bin x2.2;
bin x2.3;
bin x2.4;
bin x2.5;
bin x2.6;
bin x2.7;
bin x2.8;
bin x2.9;
bin x2.10;
bin x2.11;
bin x2.12;
bin x2.13;
bin x2.14;
bin x2.15;
bin x2.16;
bin x2.17;
bin x2.18;
bin x2.19;
bin x2.20;
bin x2.21;
bin x2.22;
bin x2.23;
bin x2.24;
bin x2.25;
bin x2.26;
bin x2.27;
bin x2.28;
bin x2.29;
bin y3;
bin x3.0;
bin x3.1;
bin x3.2;
bin x3.3;
bin x3.4;
bin x3.5;
bin x3.6;
bin x3.7;
bin x3.8;
bin x3.9;
bin x3.10;
bin x3.11;
bin x3.12;
bin x3.13;
bin x3.14;
bin x3.15;
bin x3.16;
bin x3.17;
bin x3.18;
bin x3.19;
bin x3.20;
bin x3.21;
bin x3.22;
bin x3.23;
bin x3.24;
bin x3.25;
bin x3.26;
bin x3.27;
bin x3.28;
bin x3.29;
bin y4;
bin x4.0;
bin x4.1;
bin x4.2;
bin x4.3;
bin x4.4;
bin x4.5;
bin x4.6;
bin x4.7;
bin x4.8;
bin x4.9;
bin x4.10;
bin x4.11;
bin x4.12;
bin x4.13;
bin x4.14;
bin x4.15;
bin x4.16;
bin x4.17;
bin x4.18;
bin x4.19;
bin x4.20;
bin x4.21;
bin x4.22;
bin x4.23;
bin x4.24;
bin x4.25;
bin x4.26;
bin x4.27;
bin x4.28;
bin x4.29;
bin y5;
bin x5.0;
bin x5.1;
bin x5.2;
bin x5.3;
bin x5.4;
bin x5.5;
bin x5.6;
bin x5.7;
bin x5.8;
bin x5.9;
bin x5.10;
bin x5.11;
bin x5.12;
bin x5.13;
bin x5.14;
bin x5.15;
bin x5.16;
bin x5.17;
bin x5.18;
bin x5.19;
bin x5.20;
bin x5.21;
bin x5.22;
bin x5.23;
bin x5.24;
bin x5.25;
bin x5.26;
bin x5.27;
bin x5.28;
bin x5.29;
bin y6;
bin x6.0;
bin x6.1;
bin x6.2;
bin x6.3;
bin x6.4;
bin x6.5;
bin x6.6;
bin x6.7;
bin x6.8;
bin x6.9;
bin x6.10;
bin x6.11;
bin x6.12;
bin x6.13;
bin x6.14;
bin x6.15;
bin x6.16;
bin x6.17;
bin x6.18;
bin x6.19;
bin x6.20;
bin x6.21;
bin x6.22;
bin x6.23;
bin x6.24;
bin x6.25;
bin x6.26;
bin x6.27;
bin x6.28;
bin x6.29;
bin y7;
bin x7.0;
bin x7.1;
bin x7.2;
bin x7.3;
bin x7.4;
bin x7.5;
bin x7.6;
bin x7.7;
bin x7.8;
bin x7.9;
bin x7.10;
bin x7.11;
bin x7.12;
bin x7.13;
bin x7.14;
bin x7.15;
bin x7.16;
bin x7.17;
bin x7.18;
bin x7.19;
bin x7.20;
bin x7.21;
bin x7.22;
bin x7.23;
bin x7.24;
bin x7.25;
bin x7.26;
bin x7.27;
bin x7.28;
bin x7.29;
bin y8;
bin x8.0;
bin x8.1;
bin x8.2;
bin x8.3;
bin x8.4;
bin x8.5;
bin x8.6;
bin x8.7;
bin x8.8;
bin x8.9;
bin x8.10;
bin x8.11;
bin x8.12;
bin x8.13;
bin x8.14;
bin x8.15;
bin x8.16;
bin x8.17;
bin x8.18;
bin x8.19;
bin x8.20;
bin x8.21;
bin x8.22;
bin x8.23;
bin x8.24;
bin x8.25;
bin x8.26;
bin x8.27;
bin x8.28;
bin x8.29;
bin y9;
bin x9.0;
bin x9.1;
bin x9.2;
bin x9.3;
bin x9.4;
bin x9.5;
bin x9.6;
bin x9.7;
bin x9.8;
bin x9.9;
bin x9.10;
bin x9.11;
bin x9.12;
bin x9.13;
bin x9.14;
bin x9.15;
bin x9.16;
bin x9.17;
bin x9.18;
bin x9.19;
bin x9.20;
bin x9.21;
bin x9.22;
bin x9.23;
bin x9.24;
bin x9.25;
bin x9.26;
bin x9.27;
bin x9.28;
bin x9.29;
bin y10;
bin x10.0;
bin x10.1;
bin x10.2;
bin x10.3;
bin x10.4;
bin x10.5;
bin x10.6;
bin x10.7;
bin x10.8;
bin x10.9;
bin x10.10;
bin x10.11;
bin x10.12;
bin x10.13;
bin x10.14;
bin x10.15;
bin x10.16;
bin x10.17;
bin x10.18;
bin x10.19;
bin x10.20;
bin x10.21;
bin x10.22;
bin x10.23;
bin x10.24;
bin x10.25;
bin x10.26;
bin x10.27;
bin x10.28;
bin x10.29;
bin y11;
bin x11.0;
bin x11.1;
bin x11.2;
bin x11.3;
bin x11.4;
bin x11.5;
bin x11.6;
bin x11.7;
bin x11.8;
bin x11.9;
bin x11.10;
bin x11.11;
bin x11.12;
bin x11.13;
bin x11.14;
bin x11.15;
bin x11.16;
bin x11.17;
bin x11.18;
bin x11.19;
bin x11.20;
bin x11.21;
bin x11.22;
bin x11.23;
bin x11.24;
bin x11.25;
bin x11.26;
bin x11.27;
bin x11.28;
bin x11.29;
bin y12;
bin x12.0;
bin x12.1;
bin x12.2;
bin x12.3;
bin x12.4;
bin x12.5;
bin x12.6;
bin x12.7;
bin x12.8;
bin x12.9;
bin x12.10;
bin x12.11;
bin x12.12;
bin x12.13;
bin x12.14;
bin x12.15;
bin x12.16;
bin x12.17;
bin x12.18;
bin x12.19;
bin x12.20;
bin x12.21;
bin x12.22;
bin x12.23;
bin x12.24;
bin x12.25;
bin x12.26;
bin x12.27;
bin x12.28;
bin x12.29;
bin y13;
bin x13.0;
bin x13.1;
bin x13.2;
bin x13.3;
bin x13.4;
bin x13.5;
bin x13.6;
bin x13.7;
bin x13.8;
bin x13.9;
bin x13.10;
bin x13.11;
bin x13.12;
bin x13.13;
bin x13.14;
bin x13.15;
bin x13.16;
bin x13.17;
bin x13.18;
bin x13.19;
bin x13.20;
bin x13.21;
bin x13.22;
bin x13.23;
bin x13.24;
bin x13.25;
bin x13.26;
bin x13.27;
bin x13.28;
bin x13.29;
bin y14;
bin x14.0;
bin x14.1;
bin x14.2;
bin x14.3;
bin x14.4;
bin x14.5;
bin x14.6;
bin x14.7;
bin x14.8;
bin x14.9;
bin x14.10;
bin x14.11;
bin x14.12;
bin x14.13;
bin x14.14;
bin x14.15;
bin x14.16;
bin x14.17;
bin x14.18;
bin x14.19;
bin x14.20;
bin x14.21;
bin x14.22;
bin x14.23;
bin x14.24;
bin x14.25;
bin x14.26;
bin x14.27;
bin x14.28;
bin x14.29;
bin y15;
bin x15.0;
bin x15.1;
bin x15.2;
bin x15.3;
bin x15.4;
bin x15.5;
bin x15.6;
bin x15.7;
bin x15.8;
bin x15.9;
bin x15.10;
bin x15.11;
bin x15.12;
bin x15.13;
bin x15.14;
bin x15.15;
bin x15.16;
bin x15.17;
bin x15.18;
bin x15.19;
bin x15.20;
bin x15.21;
bin x15.22;
bin x15.23;
bin x15.24;
bin x15.25;
bin x15.26;
bin x15.27;
bin x15.28;
bin x15.29;
bin y16;
bin x16.0;
bin x16.1;
bin x16.2;
bin x16.3;
bin x16.4;
bin x16.5;
bin x16.6;
bin x16.7;
bin x16.8;
bin x16.9;
bin x16.10;
bin x16.11;
bin x16.12;
bin x16.13;
bin x16.14;
bin x16.15;
bin x16.16;
bin x16.17;
bin x16.18;
bin x16.19;
bin x16.20;
bin x16.21;
bin x16.22;
bin x16.23;
bin x16.24;
bin x16.25;
bin x16.26;
bin x16.27;
bin x16.28;
bin x16.29;
bin y17;
bin x17.0;
bin x17.1;
bin x17.2;
bin x17.3;
bin x17.4;
bin x17.5;
bin x17.6;
bin x17.7;
bin x17.8;
bin x17.9;
bin x17.10;
bin x17.11;
bin x17.12;
bin x17.13;
bin x17.14;
bin x17.15;
bin x17.16;
bin x17.17;
bin x17.18;
bin x17.19;
bin x17.20;
bin x17.21;
bin x17.22;
bin x17.23;
bin x17.24;
bin x17.25;
bin x17.26;
bin x17.27;
bin x17.28;
bin x17.29;
bin y18;
bin x18.0;
bin x18.1;
bin x18.2;
bin x18.3;
bin x18.4;
bin x18.5;
bin x18.6;
bin x18.7;
bin x18.8;
bin x18.9;
bin x18.10;
bin x18.11;
bin x18.12;
bin x18.13;
bin x18.14;
bin x18.15;
bin x18.16;
bin x18.17;
bin x18.18;
bin x18.19;
bin x18.20;
bin x18.21;
bin x18.22;
bin x18.23;
bin x18.24;
bin x18.25;
bin x18.26;
bin x18.27;
bin x18.28;
bin x18.29;
bin y19;
bin x19.0;
bin x19.1;
bin x19.2;
bin x19.3;
bin x19.4;
bin x19.5;
bin x19.6;
bin x19.7;
bin x19.8;
bin x19.9;
bin x19.10;
bin x19.11;
bin x19.12;
bin x19.13;
bin x19.14;
bin x19.15;
bin x19.16;
bin x19.17;
bin x19.18;
bin x19.19;
bin x19.20;
bin x19.21;
bin x19.22;
bin x19.23;
bin x19.24;
bin x19.25;
bin x19.26;
bin x19.27;
bin x19.28;
bin x19.29;
bin y20;
bin x20.0;
bin x20.1;
bin x20.2;
bin x20.3;
bin x20.4;
bin x20.5;
bin x20.6;
bin x20.7;
bin x20.8;
bin x20.9;
bin x20.10;
bin x20.11;
bin x20.12;
bin x20.13;
bin x20.14;
bin x20.15;
bin x20.16;
bin x20.17;
bin x20.18;
bin x20.19;
bin x20.20;
bin x20.21;
bin x20.22;
bin x20.23;
bin x20.24;
bin x20.25;
bin x20.26;
bin x20.27;
bin x20.28;
bin x20.29;
bin y21;
bin x21.0;
bin x21.1;
bin x21.2;
bin x21.3;
bin x21.4;
bin x21.5;
bin x21.6;
bin x21.7;
bin x21.8;
bin x21.9;
bin x21.10;
bin x21.11;
bin x21.12;
bin x21.13;
bin x21.14;
bin x21.15;
bin x21.16;
bin x21.17;
bin x21.18;
bin x21.19;
bin x21.20;
bin x21.21;
bin x21.22;
bin x21.23;
bin x21.24;
bin x21.25;
bin x21.26;
bin x21.27;
bin x21.28;
bin x21.29;
bin y22;
bin x22.0;
bin x22.1;
bin x22.2;
bin x22.3;
bin x22.4;
bin x22.5;
bin x22.6;
bin x22.7;
bin x22.8;
bin x22.9;
bin x22.10;
bin x22.11;
bin x22.12;
bin x22.13;
bin x22.14;
bin x22.15;
bin x22.16;
bin x22.17;
bin x22.18;
bin x22.19;
bin x22.20;
bin x22.21;
bin x22.22;
bin x22.23;
bin x22.24;
bin x22.25;
bin x22.26;
bin x22.27;
bin x22.28;
bin x22.29;
bin y23;
bin x23.0;
bin x23.1;
bin x23.2;
bin x23.3;
bin x23.4;
bin x23.5;
bin x23.6;
bin x23.7;
bin x23.8;
bin x23.9;
bin x23.10;
bin x23.11;
bin x23.12;
bin x23.13;
bin x23.14;
bin x23.15;
bin x23.16;
bin x23.17;
bin x23.18;
bin x23.19;
bin x23.20;
bin x23.21;
bin x23.22;
bin x23.23;
bin x23.24;
bin x23.25;
bin x23.26;
bin x23.27;
bin x23.28;
bin x23.29;
bin y24;
bin x24.0;
bin x24.1;
bin x24.2;
bin x24.3;
bin x24.4;
bin x24.5;
bin x24.6;
bin x24.7;
bin x24.8;
bin x24.9;
bin x24.10;
bin x24.11;
bin x24.12;
bin x24.13;
bin x24.14;
bin x24.15;
bin x24.16;
bin x24.17;
bin x24.18;
bin x24.19;
bin x24.20;
bin x24.21;
bin x24.22;
bin x24.23;
bin x24.24;
bin x24.25;
bin x24.26;
bin x24.27;
bin x24.28;
bin x24.29;
bin y25;
bin x25.0;
bin x25.1;
bin x25.2;
bin x25.3;
bin x25.4;
bin x25.5;
bin x25.6;
bin x25.7;
bin x25.8;
bin x25.9;
bin x25.10;
bin x25.11;
bin x25.12;
bin x25.13;
bin x25.14;
bin x25.15;
bin x25.16;
bin x25.17;
bin x25.18;
bin x25.19;
bin x25.20;
bin x25.21;
bin x25.22;
bin x25.23;
bin x25.24;
bin x25.25;
bin x25.26;
bin x25.27;
bin x25.28;
bin x25.29;
bin y26;
bin x26.0;
bin x26.1;
bin x26.2;
bin x26.3;
bin x26.4;
bin x26.5;
bin x26.6;
bin x26.7;
bin x26.8;
bin x26.9;
bin x26.10;
bin x26.11;
bin x26.12;
bin x26.13;
bin x26.14;
bin x26.15;
bin x26.16;
bin x26.17;
bin x26.18;
bin x26.19;
bin x26.20;
bin x26.21;
bin x26.22;
bin x26.23;
bin x26.24;
bin x26.25;
bin x26.26;
bin x26.27;
bin x26.28;
bin x26.29;
bin y27;
bin x27.0;
bin x27.1;
bin x27.2;
bin x27.3;
bin x27.4;
bin x27.5;
bin x27.6;
bin x27.7;
bin x27.8;
bin x27.9;
bin x27.10;
bin x27.11;
bin x27.12;
bin x27.13;
bin x27.14;
bin x27.15;
bin x27.16;
bin x27.17;
bin x27.18;
bin x27.19;
bin x27.20;
bin x27.21;
bin x27.22;
bin x27.23;
bin x27.24;
bin x27.25;
bin x27.26;
bin x27.27;
bin x27.28;
bin x27.29;
bin y28;
bin x28.0;
bin x28.1;
bin x28.2;
bin x28.3;
bin x28.4;
bin x28.5;
bin x28.6;
bin x28.7;
bin x28.8;
bin x28.9;
bin x28.10;
bin x28.11;
bin x28.12;
bin x28.13;
bin x28.14;
bin x28.15;
bin x28.16;
bin x28.17;
bin x28.18;
bin x28.19;
bin x28.20;
bin x28.21;
bin x28.22;
bin x28.23;
bin x28.24;
bin x28.25;
bin x28.26;
bin x28.27;
bin x28.28;
bin x28.29;
bin y29;
bin x29.0;
bin x29.1;
bin x29.2;
bin x29.3;
bin x29.4;
bin x29.5;
bin x29.6;
bin x29.7;
bin x29.8;
bin x29.9;
bin x29.10;
bin x29.11;
bin x29.12;
bin x29.13;
bin x29.14;
bin x29.15;
bin x29.16;
bin x29.17;
bin x29.18;
bin x29.19;
bin x29.20;
bin x29.21;
bin x29.22;
bin x29.23;
bin x29.24;
bin x29.25;
bin x29.26;
bin x29.27;
bin x29.28;
bin x29.29;
