Output/BruteForce/Random_030_05_3.ans
Facilties: 1 8 11 Score: 44
