Output/Exact/Random_030_05_3.lp.out
CPU Time for Parsing input: 0.003177s (0.003177s total since program start)
CPU Time for solving: 1.1951s (1.19827s total since program start)

Value of objective function: 44.00000000
